\ This file was automatically generated by Zimpl
\ set I := {1,2,3};
\ param baza := 10;
\ param polewy [I] := <1>3, <2>2.5, <3>1.5;
\ param orzechy [I] := <1>3.2, <2>1.7, <3>4.7;
\ param koszty [<i,j> in I*I] := baza + polewy[i] + orzechy[j];
\ param all := 140;
\ param renoma [<i,j> in I*I] := <1,1>3.5, <2,1>3.4, <3,1>0.4, <1,2>0.8, <2,2>0.4, <3,2>0.4, <1,3>1.5, <2,3>2.7, <3,3>2.4;
\ var x[I*I] integer >=0;
\ subto v1: sum <i> in I do x[1,i] >= 30;
\ subto v2: sum <i> in I do x[3,i] >= 30;
\ subto v3: sum <i> in I do x[2,i] >= 20;
\ subto v4: sum <i> in I do x[i,2] >= 0.4*all;
\ subto v5: sum <i> in I do x[i,2] >= 1.5*(sum <i> in I do x[i,1]);
\ subto v6: sum <i> in I do x[2,i] <= 45;
\ subto v7: sum <i,j> in I*I do x[i,j] == all;
\ maximize zysk: sum <i,j> in I*I do x[i,j]*(0.25*koszty[i,j] + renoma[i,j]);
\Problem name: mazurki.zpl
Maximize
 zysk:  +7.55 x#1#1 +4.475 x#1#2 +5.925 x#1#3 +7.325 x#2#1 +3.95 x#2#2 +7 x#2#3
  +4.075 x#3#1 +3.7 x#3#2 +6.45 x#3#3
Subject to
 v1_1:
  + x#1#3 + x#1#2 + x#1#1 >= 30
 v2_1:
  + x#3#3 + x#3#2 + x#3#1 >= 30
 v3_1:
  + x#2#3 + x#2#2 + x#2#1 >= 20
 v4_1:
  + x#3#2 + x#2#2 + x#1#2 >= 56
 v5_1:
  -1.5 x#3#1 -1.5 x#2#1 -1.5 x#1#1 + x#3#2 + x#2#2 + x#1#2
  >= 0
 v6_1:
  + x#2#3 + x#2#2 + x#2#1 <= 45
 v7_1:
  + x#3#3 + x#3#2 + x#3#1 + x#2#3 + x#2#2 + x#2#1
  + x#1#3 + x#1#2 + x#1#1 = 140
Bounds
 0 <= x#1#1 <= +inf
 0 <= x#1#2 <= +inf
 0 <= x#1#3 <= +inf
 0 <= x#2#1 <= +inf
 0 <= x#2#2 <= +inf
 0 <= x#2#3 <= +inf
 0 <= x#3#1 <= +inf
 0 <= x#3#2 <= +inf
 0 <= x#3#3 <= +inf
General
 x#1#1
 x#1#2
 x#1#3
 x#2#1
 x#2#2
 x#2#3
 x#3#1
 x#3#2
 x#3#3
End
